HUN,8,6,808
1,12,5,17,2,24,4,8,3,9,0,19
5,1,3,6,0,28,1,27,2,29,4,6
3,11,1,13,0,14,2,16,4,8,5,18
1,25,5,24,2,8,0,8,4,9,3,26
5,5,4,15,3,10,0,16,1,26,2,11
1,24,5,9,0,29,4,26,2,26,3,2
0,25,1,25,5,27,3,30,4,21,2,7
3,27,1,4,4,11,0,1,2,22,5,19
